\ENCODING=ISO-8859-1
\Problem name: IloCplex

Maximize
 obj: 4291 z0.0.0 + 3704 z0.1.0 + 1050 z0.2.0 + 2975 z0.4.0 + 689 z0.5.0
      + 3704 z1.0.0 + 4291 z1.1.0 + 1627 z1.2.0 + 550 z1.3.0 + 3239 z1.4.0
      + 1274 z1.5.0 + 1050 z2.0.0 + 1627 z2.1.0 + 4291 z2.2.0 + 1365 z2.3.0
      + 2199 z2.4.0 + 2906 z2.5.0 + 550 z3.1.0 + 1365 z3.2.0 + 4291 z3.3.0
      + 305 z3.4.0 + 2749 z3.5.0 + 2975 z4.0.0 + 3239 z4.1.0 + 2199 z4.2.0
      + 305 z4.3.0 + 4291 z4.4.0 + 1585 z4.5.0 + 689 z5.0.0 + 1274 z5.1.0
      + 2906 z5.2.0 + 2749 z5.3.0 + 1585 z5.4.0 + 4291 z5.5.0 + x307
Subject To
 c1:         x0.0 + x0.1 + x0.2 + x0.3 + x0.4 + x0.5  = 1
 c2:         x1.0 + x1.1 + x1.2 + x1.3 + x1.4 + x1.5  = 1
 c3:         x2.0 + x2.1 + x2.2 + x2.3 + x2.4 + x2.5  = 1
 c4:         - 3781 x0.0 - 2670 x1.0 - 1653 x2.0 + z0.0.0 + z0.1.0 + z0.2.0
             + z0.3.0 + z0.4.0 + z0.5.0 <= 0
 c5:         - 3781 x0.1 - 2670 x1.1 - 1653 x2.1 + z1.0.0 + z1.1.0 + z1.2.0
             + z1.3.0 + z1.4.0 + z1.5.0 <= 0
 c6:         - 3781 x0.2 - 2670 x1.2 - 1653 x2.2 + z2.0.0 + z2.1.0 + z2.2.0
             + z2.3.0 + z2.4.0 + z2.5.0 <= 0
 c7:         - 3781 x0.3 - 2670 x1.3 - 1653 x2.3 + z3.0.0 + z3.1.0 + z3.2.0
             + z3.3.0 + z3.4.0 + z3.5.0 <= 0
 c8:         - 3781 x0.4 - 2670 x1.4 - 1653 x2.4 + z4.0.0 + z4.1.0 + z4.2.0
             + z4.3.0 + z4.4.0 + z4.5.0 <= 0
 c9:         - 3781 x0.5 - 2670 x1.5 - 1653 x2.5 + z5.0.0 + z5.1.0 + z5.2.0
             + z5.3.0 + z5.4.0 + z5.5.0 <= 0
 Demand.0.0: z0.0.0 + z1.0.0 + z2.0.0 + z3.0.0 + z4.0.0 + z5.0.0 <= 1196
 Demand.1.0: z0.1.0 + z1.1.0 + z2.1.0 + z3.1.0 + z4.1.0 + z5.1.0 <= 1340
 Demand.2.0: z0.2.0 + z1.2.0 + z2.2.0 + z3.2.0 + z4.2.0 + z5.2.0 <= 1398
 Demand.3.0: z0.3.0 + z1.3.0 + z2.3.0 + z3.3.0 + z4.3.0 + z5.3.0 <= 1653
 Demand.4.0: z0.4.0 + z1.4.0 + z2.4.0 + z3.4.0 + z4.4.0 + z5.4.0 <= 1245
 Demand.5.0: z0.5.0 + z1.5.0 + z2.5.0 + z3.5.0 + z4.5.0 + z5.5.0 <= 1272
 c16:        - 945.25 x0.0 - 2670 x1.0 - 1653 x2.0 + z0.0.1 + z0.1.1 + z0.2.1
             + z0.3.1 + z0.4.1 + z0.5.1 <= 0
 c18:        - 945.25 x0.1 - 2670 x1.1 - 1653 x2.1 + z1.0.1 + z1.1.1 + z1.2.1
             + z1.3.1 + z1.4.1 + z1.5.1 <= 0
 c20:        - 945.25 x0.2 - 2670 x1.2 - 1653 x2.2 + z2.0.1 + z2.1.1 + z2.2.1
             + z2.3.1 + z2.4.1 + z2.5.1 <= 0
 c22:        - 945.25 x0.3 - 2670 x1.3 - 1653 x2.3 + z3.0.1 + z3.1.1 + z3.2.1
             + z3.3.1 + z3.4.1 + z3.5.1 <= 0
 c24:        - 945.25 x0.4 - 2670 x1.4 - 1653 x2.4 + z4.0.1 + z4.1.1 + z4.2.1
             + z4.3.1 + z4.4.1 + z4.5.1 <= 0
 c26:        - 945.25 x0.5 - 2670 x1.5 - 1653 x2.5 + z5.0.1 + z5.1.1 + z5.2.1
             + z5.3.1 + z5.4.1 + z5.5.1 <= 0
 Demand.0.1: z0.0.1 + z1.0.1 + z2.0.1 + z3.0.1 + z4.0.1 + z5.0.1 <= 1196
 Demand.1.1: z0.1.1 + z1.1.1 + z2.1.1 + z3.1.1 + z4.1.1 + z5.1.1 <= 1340
 Demand.2.1: z0.2.1 + z1.2.1 + z2.2.1 + z3.2.1 + z4.2.1 + z5.2.1 <= 1398
 Demand.3.1: z0.3.1 + z1.3.1 + z2.3.1 + z3.3.1 + z4.3.1 + z5.3.1 <= 1653
 Demand.4.1: z0.4.1 + z1.4.1 + z2.4.1 + z3.4.1 + z4.4.1 + z5.4.1 <= 1245
 Demand.5.1: z0.5.1 + z1.5.1 + z2.5.1 + z3.5.1 + z4.5.1 + z5.5.1 <= 1272
 c34:        - 3781 x0.0 - 667.5 x1.0 - 1653 x2.0 + z0.0.2 + z0.1.2 + z0.2.2
             + z0.3.2 + z0.4.2 + z0.5.2 <= 0
 c36:        - 3781 x0.1 - 667.5 x1.1 - 1653 x2.1 + z1.0.2 + z1.1.2 + z1.2.2
             + z1.3.2 + z1.4.2 + z1.5.2 <= 0
 c38:        - 3781 x0.2 - 667.5 x1.2 - 1653 x2.2 + z2.0.2 + z2.1.2 + z2.2.2
             + z2.3.2 + z2.4.2 + z2.5.2 <= 0
 c40:        - 3781 x0.3 - 667.5 x1.3 - 1653 x2.3 + z3.0.2 + z3.1.2 + z3.2.2
             + z3.3.2 + z3.4.2 + z3.5.2 <= 0
 c42:        - 3781 x0.4 - 667.5 x1.4 - 1653 x2.4 + z4.0.2 + z4.1.2 + z4.2.2
             + z4.3.2 + z4.4.2 + z4.5.2 <= 0
 c44:        - 3781 x0.5 - 667.5 x1.5 - 1653 x2.5 + z5.0.2 + z5.1.2 + z5.2.2
             + z5.3.2 + z5.4.2 + z5.5.2 <= 0
 Demand.0.2: z0.0.2 + z1.0.2 + z2.0.2 + z3.0.2 + z4.0.2 + z5.0.2 <= 1196
 Demand.1.2: z0.1.2 + z1.1.2 + z2.1.2 + z3.1.2 + z4.1.2 + z5.1.2 <= 1340
 Demand.2.2: z0.2.2 + z1.2.2 + z2.2.2 + z3.2.2 + z4.2.2 + z5.2.2 <= 1398
 Demand.3.2: z0.3.2 + z1.3.2 + z2.3.2 + z3.3.2 + z4.3.2 + z5.3.2 <= 1653
 Demand.4.2: z0.4.2 + z1.4.2 + z2.4.2 + z3.4.2 + z4.4.2 + z5.4.2 <= 1245
 Demand.5.2: z0.5.2 + z1.5.2 + z2.5.2 + z3.5.2 + z4.5.2 + z5.5.2 <= 1272
 c52:        - 945.25 x0.0 - 667.5 x1.0 - 1653 x2.0 + z0.0.3 + z0.1.3 + z0.2.3
             + z0.3.3 + z0.4.3 + z0.5.3 <= 0
 c54:        - 945.25 x0.1 - 667.5 x1.1 - 1653 x2.1 + z1.0.3 + z1.1.3 + z1.2.3
             + z1.3.3 + z1.4.3 + z1.5.3 <= 0
 c56:        - 945.25 x0.2 - 667.5 x1.2 - 1653 x2.2 + z2.0.3 + z2.1.3 + z2.2.3
             + z2.3.3 + z2.4.3 + z2.5.3 <= 0
 c58:        - 945.25 x0.3 - 667.5 x1.3 - 1653 x2.3 + z3.0.3 + z3.1.3 + z3.2.3
             + z3.3.3 + z3.4.3 + z3.5.3 <= 0
 c60:        - 945.25 x0.4 - 667.5 x1.4 - 1653 x2.4 + z4.0.3 + z4.1.3 + z4.2.3
             + z4.3.3 + z4.4.3 + z4.5.3 <= 0
 c62:        - 945.25 x0.5 - 667.5 x1.5 - 1653 x2.5 + z5.0.3 + z5.1.3 + z5.2.3
             + z5.3.3 + z5.4.3 + z5.5.3 <= 0
 Demand.0.3: z0.0.3 + z1.0.3 + z2.0.3 + z3.0.3 + z4.0.3 + z5.0.3 <= 1196
 Demand.1.3: z0.1.3 + z1.1.3 + z2.1.3 + z3.1.3 + z4.1.3 + z5.1.3 <= 1340
 Demand.2.3: z0.2.3 + z1.2.3 + z2.2.3 + z3.2.3 + z4.2.3 + z5.2.3 <= 1398
 Demand.3.3: z0.3.3 + z1.3.3 + z2.3.3 + z3.3.3 + z4.3.3 + z5.3.3 <= 1653
 Demand.4.3: z0.4.3 + z1.4.3 + z2.4.3 + z3.4.3 + z4.4.3 + z5.4.3 <= 1245
 Demand.5.3: z0.5.3 + z1.5.3 + z2.5.3 + z3.5.3 + z4.5.3 + z5.5.3 <= 1272
 c70:        - 3781 x0.0 - 2670 x1.0 - 413.25 x2.0 + z0.0.4 + z0.1.4 + z0.2.4
             + z0.3.4 + z0.4.4 + z0.5.4 <= 0
 c72:        - 3781 x0.1 - 2670 x1.1 - 413.25 x2.1 + z1.0.4 + z1.1.4 + z1.2.4
             + z1.3.4 + z1.4.4 + z1.5.4 <= 0
 c74:        - 3781 x0.2 - 2670 x1.2 - 413.25 x2.2 + z2.0.4 + z2.1.4 + z2.2.4
             + z2.3.4 + z2.4.4 + z2.5.4 <= 0
 c76:        - 3781 x0.3 - 2670 x1.3 - 413.25 x2.3 + z3.0.4 + z3.1.4 + z3.2.4
             + z3.3.4 + z3.4.4 + z3.5.4 <= 0
 c78:        - 3781 x0.4 - 2670 x1.4 - 413.25 x2.4 + z4.0.4 + z4.1.4 + z4.2.4
             + z4.3.4 + z4.4.4 + z4.5.4 <= 0
 c80:        - 3781 x0.5 - 2670 x1.5 - 413.25 x2.5 + z5.0.4 + z5.1.4 + z5.2.4
             + z5.3.4 + z5.4.4 + z5.5.4 <= 0
 Demand.0.4: z0.0.4 + z1.0.4 + z2.0.4 + z3.0.4 + z4.0.4 + z5.0.4 <= 1196
 Demand.1.4: z0.1.4 + z1.1.4 + z2.1.4 + z3.1.4 + z4.1.4 + z5.1.4 <= 1340
 Demand.2.4: z0.2.4 + z1.2.4 + z2.2.4 + z3.2.4 + z4.2.4 + z5.2.4 <= 1398
 Demand.3.4: z0.3.4 + z1.3.4 + z2.3.4 + z3.3.4 + z4.3.4 + z5.3.4 <= 1653
 Demand.4.4: z0.4.4 + z1.4.4 + z2.4.4 + z3.4.4 + z4.4.4 + z5.4.4 <= 1245
 Demand.5.4: z0.5.4 + z1.5.4 + z2.5.4 + z3.5.4 + z4.5.4 + z5.5.4 <= 1272
 c88:        - 945.25 x0.0 - 2670 x1.0 - 413.25 x2.0 + z0.0.5 + z0.1.5 + z0.2.5
             + z0.3.5 + z0.4.5 + z0.5.5 <= 0
 c90:        - 945.25 x0.1 - 2670 x1.1 - 413.25 x2.1 + z1.0.5 + z1.1.5 + z1.2.5
             + z1.3.5 + z1.4.5 + z1.5.5 <= 0
 c92:        - 945.25 x0.2 - 2670 x1.2 - 413.25 x2.2 + z2.0.5 + z2.1.5 + z2.2.5
             + z2.3.5 + z2.4.5 + z2.5.5 <= 0
 c94:        - 945.25 x0.3 - 2670 x1.3 - 413.25 x2.3 + z3.0.5 + z3.1.5 + z3.2.5
             + z3.3.5 + z3.4.5 + z3.5.5 <= 0
 c96:        - 945.25 x0.4 - 2670 x1.4 - 413.25 x2.4 + z4.0.5 + z4.1.5 + z4.2.5
             + z4.3.5 + z4.4.5 + z4.5.5 <= 0
 c98:        - 945.25 x0.5 - 2670 x1.5 - 413.25 x2.5 + z5.0.5 + z5.1.5 + z5.2.5
             + z5.3.5 + z5.4.5 + z5.5.5 <= 0
 Demand.0.5: z0.0.5 + z1.0.5 + z2.0.5 + z3.0.5 + z4.0.5 + z5.0.5 <= 1196
 Demand.1.5: z0.1.5 + z1.1.5 + z2.1.5 + z3.1.5 + z4.1.5 + z5.1.5 <= 1340
 Demand.2.5: z0.2.5 + z1.2.5 + z2.2.5 + z3.2.5 + z4.2.5 + z5.2.5 <= 1398
 Demand.3.5: z0.3.5 + z1.3.5 + z2.3.5 + z3.3.5 + z4.3.5 + z5.3.5 <= 1653
 Demand.4.5: z0.4.5 + z1.4.5 + z2.4.5 + z3.4.5 + z4.4.5 + z5.4.5 <= 1245
 Demand.5.5: z0.5.5 + z1.5.5 + z2.5.5 + z3.5.5 + z4.5.5 + z5.5.5 <= 1272
 c106:       - 3781 x0.0 - 667.5 x1.0 - 413.25 x2.0 + z0.0.6 + z0.1.6 + z0.2.6
             + z0.3.6 + z0.4.6 + z0.5.6 <= 0
 c108:       - 3781 x0.1 - 667.5 x1.1 - 413.25 x2.1 + z1.0.6 + z1.1.6 + z1.2.6
             + z1.3.6 + z1.4.6 + z1.5.6 <= 0
 c110:       - 3781 x0.2 - 667.5 x1.2 - 413.25 x2.2 + z2.0.6 + z2.1.6 + z2.2.6
             + z2.3.6 + z2.4.6 + z2.5.6 <= 0
 c112:       - 3781 x0.3 - 667.5 x1.3 - 413.25 x2.3 + z3.0.6 + z3.1.6 + z3.2.6
             + z3.3.6 + z3.4.6 + z3.5.6 <= 0
 c114:       - 3781 x0.4 - 667.5 x1.4 - 413.25 x2.4 + z4.0.6 + z4.1.6 + z4.2.6
             + z4.3.6 + z4.4.6 + z4.5.6 <= 0
 c116:       - 3781 x0.5 - 667.5 x1.5 - 413.25 x2.5 + z5.0.6 + z5.1.6 + z5.2.6
             + z5.3.6 + z5.4.6 + z5.5.6 <= 0
 Demand.0.6: z0.0.6 + z1.0.6 + z2.0.6 + z3.0.6 + z4.0.6 + z5.0.6 <= 1196
 Demand.1.6: z0.1.6 + z1.1.6 + z2.1.6 + z3.1.6 + z4.1.6 + z5.1.6 <= 1340
 Demand.2.6: z0.2.6 + z1.2.6 + z2.2.6 + z3.2.6 + z4.2.6 + z5.2.6 <= 1398
 Demand.3.6: z0.3.6 + z1.3.6 + z2.3.6 + z3.3.6 + z4.3.6 + z5.3.6 <= 1653
 Demand.4.6: z0.4.6 + z1.4.6 + z2.4.6 + z3.4.6 + z4.4.6 + z5.4.6 <= 1245
 Demand.5.6: z0.5.6 + z1.5.6 + z2.5.6 + z3.5.6 + z4.5.6 + z5.5.6 <= 1272
 c124:       - 945.25 x0.0 - 667.5 x1.0 - 413.25 x2.0 + z0.0.7 + z0.1.7
             + z0.2.7 + z0.3.7 + z0.4.7 + z0.5.7 <= 0
 c126:       - 945.25 x0.1 - 667.5 x1.1 - 413.25 x2.1 + z1.0.7 + z1.1.7
             + z1.2.7 + z1.3.7 + z1.4.7 + z1.5.7 <= 0
 c128:       - 945.25 x0.2 - 667.5 x1.2 - 413.25 x2.2 + z2.0.7 + z2.1.7
             + z2.2.7 + z2.3.7 + z2.4.7 + z2.5.7 <= 0
 c130:       - 945.25 x0.3 - 667.5 x1.3 - 413.25 x2.3 + z3.0.7 + z3.1.7
             + z3.2.7 + z3.3.7 + z3.4.7 + z3.5.7 <= 0
 c132:       - 945.25 x0.4 - 667.5 x1.4 - 413.25 x2.4 + z4.0.7 + z4.1.7
             + z4.2.7 + z4.3.7 + z4.4.7 + z4.5.7 <= 0
 c134:       - 945.25 x0.5 - 667.5 x1.5 - 413.25 x2.5 + z5.0.7 + z5.1.7
             + z5.2.7 + z5.3.7 + z5.4.7 + z5.5.7 <= 0
 Demand.0.7: z0.0.7 + z1.0.7 + z2.0.7 + z3.0.7 + z4.0.7 + z5.0.7 <= 1196
 Demand.1.7: z0.1.7 + z1.1.7 + z2.1.7 + z3.1.7 + z4.1.7 + z5.1.7 <= 1340
 Demand.2.7: z0.2.7 + z1.2.7 + z2.2.7 + z3.2.7 + z4.2.7 + z5.2.7 <= 1398
 Demand.3.7: z0.3.7 + z1.3.7 + z2.3.7 + z3.3.7 + z4.3.7 + z5.3.7 <= 1653
 Demand.4.7: z0.4.7 + z1.4.7 + z2.4.7 + z3.4.7 + z4.4.7 + z5.4.7 <= 1245
 Demand.5.7: z0.5.7 + z1.5.7 + z2.5.7 + z3.5.7 + z4.5.7 + z5.5.7 <= 1272
Bounds
      x0.0 Free
      x0.1 = 1
      x0.2 Free
      x0.3 Free
      x0.4 Free
      x0.5 Free
      x1.0 Free
      x1.1 Free
      x1.2 Free
      x1.3 = 1
      x1.4 Free
      x1.5 Free
      x2.0 Free
      x2.1 Free
      x2.2 = 1
      x2.3 Free
      x2.4 Free
      x2.5 Free
      x307 = 0
Generals
 x0.0  x0.1  x0.2  x0.3  x0.4  x0.5  x1.0  x1.1  x1.2  x1.3  x1.4  x1.5  x2.0 
 x2.1  x2.2  x2.3  x2.4  x2.5 
End
